; benchmark generated from python API
(set-info :status unknown)
(declare-fun cell_1_6 () Int)
(declare-fun cell_1_7 () Int)
(declare-fun cell_2_3 () Int)
(declare-fun cell_2_7 () Int)
(declare-fun cell_3_2 () Int)
(declare-fun cell_3_6 () Int)
(declare-fun cell_4_4 () Int)
(declare-fun cell_4_9 () Int)
(declare-fun cell_5_1 () Int)
(declare-fun cell_5_8 () Int)
(declare-fun cell_6_4 () Int)
(declare-fun cell_7_5 () Int)
(declare-fun cell_8_8 () Int)
(declare-fun cell_9_3 () Int)
(declare-fun cell_1_1 () Int)
(declare-fun cell_2_1 () Int)
(declare-fun cell_3_1 () Int)
(declare-fun cell_4_1 () Int)
(declare-fun cell_6_1 () Int)
(declare-fun cell_7_1 () Int)
(declare-fun cell_8_1 () Int)
(declare-fun cell_9_1 () Int)
(declare-fun cell_1_2 () Int)
(declare-fun cell_2_2 () Int)
(declare-fun cell_4_2 () Int)
(declare-fun cell_5_2 () Int)
(declare-fun cell_6_2 () Int)
(declare-fun cell_7_2 () Int)
(declare-fun cell_8_2 () Int)
(declare-fun cell_9_2 () Int)
(declare-fun cell_1_3 () Int)
(declare-fun cell_3_3 () Int)
(declare-fun cell_4_3 () Int)
(declare-fun cell_5_3 () Int)
(declare-fun cell_6_3 () Int)
(declare-fun cell_7_3 () Int)
(declare-fun cell_8_3 () Int)
(declare-fun cell_1_4 () Int)
(declare-fun cell_2_4 () Int)
(declare-fun cell_3_4 () Int)
(declare-fun cell_5_4 () Int)
(declare-fun cell_7_4 () Int)
(declare-fun cell_8_4 () Int)
(declare-fun cell_9_4 () Int)
(declare-fun cell_1_5 () Int)
(declare-fun cell_2_5 () Int)
(declare-fun cell_3_5 () Int)
(declare-fun cell_4_5 () Int)
(declare-fun cell_5_5 () Int)
(declare-fun cell_6_5 () Int)
(declare-fun cell_8_5 () Int)
(declare-fun cell_9_5 () Int)
(declare-fun cell_2_6 () Int)
(declare-fun cell_4_6 () Int)
(declare-fun cell_5_6 () Int)
(declare-fun cell_6_6 () Int)
(declare-fun cell_7_6 () Int)
(declare-fun cell_8_6 () Int)
(declare-fun cell_9_6 () Int)
(declare-fun cell_3_7 () Int)
(declare-fun cell_4_7 () Int)
(declare-fun cell_5_7 () Int)
(declare-fun cell_6_7 () Int)
(declare-fun cell_7_7 () Int)
(declare-fun cell_8_7 () Int)
(declare-fun cell_9_7 () Int)
(declare-fun cell_1_8 () Int)
(declare-fun cell_2_8 () Int)
(declare-fun cell_3_8 () Int)
(declare-fun cell_4_8 () Int)
(declare-fun cell_6_8 () Int)
(declare-fun cell_7_8 () Int)
(declare-fun cell_9_8 () Int)
(declare-fun cell_1_9 () Int)
(declare-fun cell_2_9 () Int)
(declare-fun cell_3_9 () Int)
(declare-fun cell_5_9 () Int)
(declare-fun cell_6_9 () Int)
(declare-fun cell_7_9 () Int)
(declare-fun cell_8_9 () Int)
(declare-fun cell_9_9 () Int)
(assert
 (= cell_1_6 1))
(assert
 (= cell_1_7 2))
(assert
 (= cell_2_3 2))
(assert
 (= cell_2_7 1))
(assert
 (= cell_3_2 1))
(assert
 (= cell_3_6 2))
(assert
 (= cell_4_4 2))
(assert
 (= cell_4_9 1))
(assert
 (= cell_5_1 1))
(assert
 (= cell_5_8 2))
(assert
 (= cell_6_4 1))
(assert
 (= cell_7_5 1))
(assert
 (= cell_8_8 1))
(assert
 (= cell_9_3 1))
(assert
 (let (($x3588 (= cell_1_1 9)))
 (let (($x867 (= cell_1_1 8)))
 (let (($x1218 (= cell_1_1 7)))
 (let (($x3138 (= cell_1_1 6)))
 (let (($x1735 (= cell_1_1 5)))
 (let (($x2119 (= cell_1_1 4)))
 (let (($x1036 (= cell_1_1 3)))
 (let (($x4061 (= cell_1_1 2)))
 (let (($x3076 (= cell_1_1 1)))
 (or $x3076 $x4061 $x1036 $x2119 $x1735 $x3138 $x1218 $x867 $x3588)))))))))))
(assert
 (let (($x2584 (= cell_2_1 9)))
 (let (($x6853 (= cell_2_1 8)))
 (let (($x3705 (= cell_2_1 7)))
 (let (($x3200 (= cell_2_1 6)))
 (let (($x2590 (= cell_2_1 5)))
 (let (($x1194 (= cell_2_1 4)))
 (let (($x4151 (= cell_2_1 3)))
 (let (($x365 (= cell_2_1 2)))
 (let (($x651 (= cell_2_1 1)))
 (or $x651 $x365 $x4151 $x1194 $x2590 $x3200 $x3705 $x6853 $x2584)))))))))))
(assert
 (let (($x3857 (= cell_3_1 9)))
 (let (($x1466 (= cell_3_1 8)))
 (let (($x7865 (= cell_3_1 7)))
 (let (($x3334 (= cell_3_1 6)))
 (let (($x652 (= cell_3_1 5)))
 (let (($x3682 (= cell_3_1 4)))
 (let (($x2804 (= cell_3_1 3)))
 (let (($x2665 (= cell_3_1 2)))
 (let (($x7301 (= cell_3_1 1)))
 (or $x7301 $x2665 $x2804 $x3682 $x652 $x3334 $x7865 $x1466 $x3857)))))))))))
(assert
 (let (($x3465 (= cell_4_1 9)))
 (let (($x2271 (= cell_4_1 8)))
 (let (($x1216 (= cell_4_1 7)))
 (let (($x1292 (= cell_4_1 6)))
 (let (($x3665 (= cell_4_1 5)))
 (let (($x1745 (= cell_4_1 4)))
 (let (($x1782 (= cell_4_1 3)))
 (let (($x1217 (= cell_4_1 2)))
 (let (($x7572 (= cell_4_1 1)))
 (or $x7572 $x1217 $x1782 $x1745 $x3665 $x1292 $x1216 $x2271 $x3465)))))))))))
(assert
 (let (($x2028 (= cell_5_1 1)))
 (or $x2028 (= cell_5_1 2) (= cell_5_1 3) (= cell_5_1 4) (= cell_5_1 5) (= cell_5_1 6) (= cell_5_1 7) (= cell_5_1 8) (= cell_5_1 9))))
(assert
 (let (($x20 (= cell_6_1 9)))
 (let (($x734 (= cell_6_1 8)))
 (let (($x7063 (= cell_6_1 7)))
 (let (($x202 (= cell_6_1 6)))
 (let (($x4021 (= cell_6_1 5)))
 (let (($x4095 (= cell_6_1 4)))
 (let (($x94 (= cell_6_1 3)))
 (let (($x3508 (= cell_6_1 2)))
 (let (($x3052 (= cell_6_1 1)))
 (or $x3052 $x3508 $x94 $x4095 $x4021 $x202 $x7063 $x734 $x20)))))))))))
(assert
 (let (($x4145 (= cell_7_1 9)))
 (let (($x3287 (= cell_7_1 8)))
 (let (($x257 (= cell_7_1 7)))
 (let (($x3674 (= cell_7_1 6)))
 (let (($x2058 (= cell_7_1 5)))
 (let (($x758 (= cell_7_1 4)))
 (let (($x849 (= cell_7_1 3)))
 (let (($x7670 (= cell_7_1 2)))
 (let (($x7092 (= cell_7_1 1)))
 (or $x7092 $x7670 $x849 $x758 $x2058 $x3674 $x257 $x3287 $x4145)))))))))))
(assert
 (let (($x727 (= cell_8_1 9)))
 (let (($x2835 (= cell_8_1 8)))
 (let (($x452 (= cell_8_1 7)))
 (let (($x4163 (= cell_8_1 6)))
 (let (($x6815 (= cell_8_1 5)))
 (let (($x2698 (= cell_8_1 4)))
 (let (($x946 (= cell_8_1 3)))
 (let (($x1031 (= cell_8_1 2)))
 (let (($x3306 (= cell_8_1 1)))
 (or $x3306 $x1031 $x946 $x2698 $x6815 $x4163 $x452 $x2835 $x727)))))))))))
(assert
 (let (($x2589 (= cell_9_1 9)))
 (let (($x3860 (= cell_9_1 8)))
 (let (($x342 (= cell_9_1 7)))
 (let (($x1361 (= cell_9_1 6)))
 (let (($x7752 (= cell_9_1 5)))
 (let (($x2484 (= cell_9_1 4)))
 (let (($x2409 (= cell_9_1 3)))
 (let (($x501 (= cell_9_1 2)))
 (let (($x4167 (= cell_9_1 1)))
 (or $x4167 $x501 $x2409 $x2484 $x7752 $x1361 $x342 $x3860 $x2589)))))))))))
(assert
 (let (($x329 (= cell_1_2 9)))
 (let (($x307 (= cell_1_2 8)))
 (let (($x2970 (= cell_1_2 7)))
 (let (($x3993 (= cell_1_2 6)))
 (let (($x3809 (= cell_1_2 5)))
 (let (($x2217 (= cell_1_2 4)))
 (let (($x930 (= cell_1_2 3)))
 (let (($x7405 (= cell_1_2 2)))
 (let (($x551 (= cell_1_2 1)))
 (or $x551 $x7405 $x930 $x2217 $x3809 $x3993 $x2970 $x307 $x329)))))))))))
(assert
 (let (($x1132 (= cell_2_2 9)))
 (let (($x2213 (= cell_2_2 8)))
 (let (($x101 (= cell_2_2 7)))
 (let (($x1105 (= cell_2_2 6)))
 (let (($x1609 (= cell_2_2 5)))
 (let (($x166 (= cell_2_2 4)))
 (let (($x1045 (= cell_2_2 3)))
 (let (($x1975 (= cell_2_2 2)))
 (let (($x1709 (= cell_2_2 1)))
 (or $x1709 $x1975 $x1045 $x166 $x1609 $x1105 $x101 $x2213 $x1132)))))))))))
(assert
 (let (($x359 (= cell_3_2 1)))
 (or $x359 (= cell_3_2 2) (= cell_3_2 3) (= cell_3_2 4) (= cell_3_2 5) (= cell_3_2 6) (= cell_3_2 7) (= cell_3_2 8) (= cell_3_2 9))))
(assert
 (let (($x2723 (= cell_4_2 9)))
 (let (($x3845 (= cell_4_2 8)))
 (let (($x7582 (= cell_4_2 7)))
 (let (($x7486 (= cell_4_2 6)))
 (let (($x3333 (= cell_4_2 5)))
 (let (($x1344 (= cell_4_2 4)))
 (let (($x2940 (= cell_4_2 3)))
 (let (($x1553 (= cell_4_2 2)))
 (let (($x3634 (= cell_4_2 1)))
 (or $x3634 $x1553 $x2940 $x1344 $x3333 $x7486 $x7582 $x3845 $x2723)))))))))))
(assert
 (let (($x6753 (= cell_5_2 9)))
 (let (($x4036 (= cell_5_2 8)))
 (let (($x1699 (= cell_5_2 7)))
 (let (($x2809 (= cell_5_2 6)))
 (let (($x7607 (= cell_5_2 5)))
 (let (($x3973 (= cell_5_2 4)))
 (let (($x1581 (= cell_5_2 3)))
 (let (($x7873 (= cell_5_2 2)))
 (let (($x2137 (= cell_5_2 1)))
 (or $x2137 $x7873 $x1581 $x3973 $x7607 $x2809 $x1699 $x4036 $x6753)))))))))))
(assert
 (let (($x379 (= cell_6_2 9)))
 (let (($x859 (= cell_6_2 8)))
 (let (($x2098 (= cell_6_2 7)))
 (let (($x2631 (= cell_6_2 6)))
 (let (($x1384 (= cell_6_2 5)))
 (let (($x1197 (= cell_6_2 4)))
 (let (($x2860 (= cell_6_2 3)))
 (let (($x2622 (= cell_6_2 2)))
 (let (($x2941 (= cell_6_2 1)))
 (or $x2941 $x2622 $x2860 $x1197 $x1384 $x2631 $x2098 $x859 $x379)))))))))))
(assert
 (let (($x1347 (= cell_7_2 9)))
 (let (($x3129 (= cell_7_2 8)))
 (let (($x3654 (= cell_7_2 7)))
 (let (($x991 (= cell_7_2 6)))
 (let (($x2354 (= cell_7_2 5)))
 (let (($x171 (= cell_7_2 4)))
 (let (($x96 (= cell_7_2 3)))
 (let (($x2556 (= cell_7_2 2)))
 (let (($x73 (= cell_7_2 1)))
 (or $x73 $x2556 $x96 $x171 $x2354 $x991 $x3654 $x3129 $x1347)))))))))))
(assert
 (let (($x2627 (= cell_8_2 9)))
 (let (($x2598 (= cell_8_2 8)))
 (let (($x324 (= cell_8_2 7)))
 (let (($x1427 (= cell_8_2 6)))
 (let (($x3667 (= cell_8_2 5)))
 (let (($x114 (= cell_8_2 4)))
 (let (($x1554 (= cell_8_2 3)))
 (let (($x3603 (= cell_8_2 2)))
 (let (($x1561 (= cell_8_2 1)))
 (or $x1561 $x3603 $x1554 $x114 $x3667 $x1427 $x324 $x2598 $x2627)))))))))))
(assert
 (let (($x1988 (= cell_9_2 9)))
 (let (($x1454 (= cell_9_2 8)))
 (let (($x749 (= cell_9_2 7)))
 (let (($x3392 (= cell_9_2 6)))
 (let (($x1052 (= cell_9_2 5)))
 (let (($x2150 (= cell_9_2 4)))
 (let (($x3615 (= cell_9_2 3)))
 (let (($x3387 (= cell_9_2 2)))
 (let (($x3670 (= cell_9_2 1)))
 (or $x3670 $x3387 $x3615 $x2150 $x1052 $x3392 $x749 $x1454 $x1988)))))))))))
(assert
 (let (($x3488 (= cell_1_3 9)))
 (let (($x2599 (= cell_1_3 8)))
 (let (($x4211 (= cell_1_3 7)))
 (let (($x811 (= cell_1_3 6)))
 (let (($x1312 (= cell_1_3 5)))
 (let (($x1041 (= cell_1_3 4)))
 (let (($x2270 (= cell_1_3 3)))
 (let (($x7077 (= cell_1_3 2)))
 (let (($x185 (= cell_1_3 1)))
 (or $x185 $x7077 $x2270 $x1041 $x1312 $x811 $x4211 $x2599 $x3488)))))))))))
(assert
 (let (($x1185 (= cell_2_3 2)))
 (or (= cell_2_3 1) $x1185 (= cell_2_3 3) (= cell_2_3 4) (= cell_2_3 5) (= cell_2_3 6) (= cell_2_3 7) (= cell_2_3 8) (= cell_2_3 9))))
(assert
 (let (($x1484 (= cell_3_3 9)))
 (let (($x2844 (= cell_3_3 8)))
 (let (($x2926 (= cell_3_3 7)))
 (let (($x1805 (= cell_3_3 6)))
 (let (($x2316 (= cell_3_3 5)))
 (let (($x3100 (= cell_3_3 4)))
 (let (($x535 (= cell_3_3 3)))
 (let (($x7466 (= cell_3_3 2)))
 (let (($x2412 (= cell_3_3 1)))
 (or $x2412 $x7466 $x535 $x3100 $x2316 $x1805 $x2926 $x2844 $x1484)))))))))))
(assert
 (let (($x1840 (= cell_4_3 9)))
 (let (($x1899 (= cell_4_3 8)))
 (let (($x1237 (= cell_4_3 7)))
 (let (($x6848 (= cell_4_3 6)))
 (let (($x129 (= cell_4_3 5)))
 (let (($x3701 (= cell_4_3 4)))
 (let (($x723 (= cell_4_3 3)))
 (let (($x4243 (= cell_4_3 2)))
 (let (($x1650 (= cell_4_3 1)))
 (or $x1650 $x4243 $x723 $x3701 $x129 $x6848 $x1237 $x1899 $x1840)))))))))))
(assert
 (let (($x2274 (= cell_5_3 9)))
 (let (($x870 (= cell_5_3 8)))
 (let (($x68 (= cell_5_3 7)))
 (let (($x914 (= cell_5_3 6)))
 (let (($x7277 (= cell_5_3 5)))
 (let (($x7 (= cell_5_3 4)))
 (let (($x2737 (= cell_5_3 3)))
 (let (($x1401 (= cell_5_3 2)))
 (let (($x3550 (= cell_5_3 1)))
 (or $x3550 $x1401 $x2737 $x7 $x7277 $x914 $x68 $x870 $x2274)))))))))))
(assert
 (let (($x3083 (= cell_6_3 9)))
 (let (($x3214 (= cell_6_3 8)))
 (let (($x28 (= cell_6_3 7)))
 (let (($x3185 (= cell_6_3 6)))
 (let (($x3693 (= cell_6_3 5)))
 (let (($x500 (= cell_6_3 4)))
 (let (($x3359 (= cell_6_3 3)))
 (let (($x6868 (= cell_6_3 2)))
 (let (($x458 (= cell_6_3 1)))
 (or $x458 $x6868 $x3359 $x500 $x3693 $x3185 $x28 $x3214 $x3083)))))))))))
(assert
 (let (($x310 (= cell_7_3 9)))
 (let (($x3990 (= cell_7_3 8)))
 (let (($x1773 (= cell_7_3 7)))
 (let (($x1717 (= cell_7_3 6)))
 (let (($x922 (= cell_7_3 5)))
 (let (($x1953 (= cell_7_3 4)))
 (let (($x708 (= cell_7_3 3)))
 (let (($x108 (= cell_7_3 2)))
 (let (($x528 (= cell_7_3 1)))
 (or $x528 $x108 $x708 $x1953 $x922 $x1717 $x1773 $x3990 $x310)))))))))))
(assert
 (let (($x2313 (= cell_8_3 9)))
 (let (($x3567 (= cell_8_3 8)))
 (let (($x462 (= cell_8_3 7)))
 (let (($x2413 (= cell_8_3 6)))
 (let (($x2738 (= cell_8_3 5)))
 (let (($x2334 (= cell_8_3 4)))
 (let (($x4240 (= cell_8_3 3)))
 (let (($x807 (= cell_8_3 2)))
 (let (($x3274 (= cell_8_3 1)))
 (or $x3274 $x807 $x4240 $x2334 $x2738 $x2413 $x462 $x3567 $x2313)))))))))))
(assert
 (let (($x6759 (= cell_9_3 1)))
 (or $x6759 (= cell_9_3 2) (= cell_9_3 3) (= cell_9_3 4) (= cell_9_3 5) (= cell_9_3 6) (= cell_9_3 7) (= cell_9_3 8) (= cell_9_3 9))))
(assert
 (let (($x92 (= cell_1_4 9)))
 (let (($x1664 (= cell_1_4 8)))
 (let (($x4134 (= cell_1_4 7)))
 (let (($x7999 (= cell_1_4 6)))
 (let (($x589 (= cell_1_4 5)))
 (let (($x1729 (= cell_1_4 4)))
 (let (($x955 (= cell_1_4 3)))
 (let (($x1273 (= cell_1_4 2)))
 (let (($x6723 (= cell_1_4 1)))
 (or $x6723 $x1273 $x955 $x1729 $x589 $x7999 $x4134 $x1664 $x92)))))))))))
(assert
 (let (($x1066 (= cell_2_4 9)))
 (let (($x942 (= cell_2_4 8)))
 (let (($x274 (= cell_2_4 7)))
 (let (($x2277 (= cell_2_4 6)))
 (let (($x3449 (= cell_2_4 5)))
 (let (($x1352 (= cell_2_4 4)))
 (let (($x1724 (= cell_2_4 3)))
 (let (($x2957 (= cell_2_4 2)))
 (let (($x694 (= cell_2_4 1)))
 (or $x694 $x2957 $x1724 $x1352 $x3449 $x2277 $x274 $x942 $x1066)))))))))))
(assert
 (let (($x2346 (= cell_3_4 9)))
 (let (($x303 (= cell_3_4 8)))
 (let (($x3994 (= cell_3_4 7)))
 (let (($x7236 (= cell_3_4 6)))
 (let (($x2930 (= cell_3_4 5)))
 (let (($x89 (= cell_3_4 4)))
 (let (($x7202 (= cell_3_4 3)))
 (let (($x721 (= cell_3_4 2)))
 (let (($x3483 (= cell_3_4 1)))
 (or $x3483 $x721 $x7202 $x89 $x2930 $x7236 $x3994 $x303 $x2346)))))))))))
(assert
 (let (($x2640 (= cell_4_4 2)))
 (or (= cell_4_4 1) $x2640 (= cell_4_4 3) (= cell_4_4 4) (= cell_4_4 5) (= cell_4_4 6) (= cell_4_4 7) (= cell_4_4 8) (= cell_4_4 9))))
(assert
 (let (($x3177 (= cell_5_4 9)))
 (let (($x293 (= cell_5_4 8)))
 (let (($x1225 (= cell_5_4 7)))
 (let (($x572 (= cell_5_4 6)))
 (let (($x313 (= cell_5_4 5)))
 (let (($x1336 (= cell_5_4 4)))
 (let (($x3081 (= cell_5_4 3)))
 (let (($x2025 (= cell_5_4 2)))
 (let (($x2357 (= cell_5_4 1)))
 (or $x2357 $x2025 $x3081 $x1336 $x313 $x572 $x1225 $x293 $x3177)))))))))))
(assert
 (let (($x4050 (= cell_6_4 1)))
 (or $x4050 (= cell_6_4 2) (= cell_6_4 3) (= cell_6_4 4) (= cell_6_4 5) (= cell_6_4 6) (= cell_6_4 7) (= cell_6_4 8) (= cell_6_4 9))))
(assert
 (let (($x717 (= cell_7_4 9)))
 (let (($x418 (= cell_7_4 8)))
 (let (($x2165 (= cell_7_4 7)))
 (let (($x2779 (= cell_7_4 6)))
 (let (($x2272 (= cell_7_4 5)))
 (let (($x2321 (= cell_7_4 4)))
 (let (($x8016 (= cell_7_4 3)))
 (let (($x152 (= cell_7_4 2)))
 (let (($x484 (= cell_7_4 1)))
 (or $x484 $x152 $x8016 $x2321 $x2272 $x2779 $x2165 $x418 $x717)))))))))))
(assert
 (let (($x429 (= cell_8_4 9)))
 (let (($x7030 (= cell_8_4 8)))
 (let (($x2949 (= cell_8_4 7)))
 (let (($x7053 (= cell_8_4 6)))
 (let (($x1942 (= cell_8_4 5)))
 (let (($x2340 (= cell_8_4 4)))
 (let (($x1210 (= cell_8_4 3)))
 (let (($x3541 (= cell_8_4 2)))
 (let (($x7399 (= cell_8_4 1)))
 (or $x7399 $x3541 $x1210 $x2340 $x1942 $x7053 $x2949 $x7030 $x429)))))))))))
(assert
 (let (($x487 (= cell_9_4 2)))
 (let (($x935 (= cell_9_4 1)))
 (or $x935 $x487 (= cell_9_4 3) (= cell_9_4 4) (= cell_9_4 5) (= cell_9_4 6) (= cell_9_4 7) (= cell_9_4 8) (= cell_9_4 9)))))
(assert
 (let (($x1162 (= cell_1_5 9)))
 (let (($x432 (= cell_1_5 8)))
 (let (($x2648 (= cell_1_5 7)))
 (let (($x1143 (= cell_1_5 6)))
 (let (($x1339 (= cell_1_5 5)))
 (let (($x3558 (= cell_1_5 4)))
 (let (($x7973 (= cell_1_5 3)))
 (let (($x3926 (= cell_1_5 2)))
 (let (($x164 (= cell_1_5 1)))
 (or $x164 $x3926 $x7973 $x3558 $x1339 $x1143 $x2648 $x432 $x1162)))))))))))
(assert
 (let (($x3887 (= cell_2_5 9)))
 (let (($x1428 (= cell_2_5 8)))
 (let (($x2896 (= cell_2_5 7)))
 (let (($x709 (= cell_2_5 6)))
 (let (($x456 (= cell_2_5 5)))
 (let (($x2654 (= cell_2_5 4)))
 (let (($x7232 (= cell_2_5 3)))
 (let (($x3543 (= cell_2_5 2)))
 (let (($x504 (= cell_2_5 1)))
 (or $x504 $x3543 $x7232 $x2654 $x456 $x709 $x2896 $x1428 $x3887)))))))))))
(assert
 (let (($x1039 (= cell_3_5 9)))
 (let (($x2091 (= cell_3_5 8)))
 (let (($x3703 (= cell_3_5 7)))
 (let (($x155 (= cell_3_5 6)))
 (let (($x2806 (= cell_3_5 5)))
 (let (($x1180 (= cell_3_5 4)))
 (let (($x7663 (= cell_3_5 3)))
 (let (($x1678 (= cell_3_5 2)))
 (let (($x2473 (= cell_3_5 1)))
 (or $x2473 $x1678 $x7663 $x1180 $x2806 $x155 $x3703 $x2091 $x1039)))))))))))
(assert
 (let (($x653 (= cell_4_5 9)))
 (let (($x2987 (= cell_4_5 8)))
 (let (($x2528 (= cell_4_5 7)))
 (let (($x990 (= cell_4_5 6)))
 (let (($x667 (= cell_4_5 5)))
 (let (($x3617 (= cell_4_5 4)))
 (let (($x798 (= cell_4_5 3)))
 (let (($x768 (= cell_4_5 2)))
 (let (($x3265 (= cell_4_5 1)))
 (or $x3265 $x768 $x798 $x3617 $x667 $x990 $x2528 $x2987 $x653)))))))))))
(assert
 (let (($x3406 (= cell_5_5 9)))
 (let (($x1836 (= cell_5_5 8)))
 (let (($x3372 (= cell_5_5 7)))
 (let (($x3210 (= cell_5_5 6)))
 (let (($x2099 (= cell_5_5 5)))
 (let (($x1903 (= cell_5_5 4)))
 (let (($x3939 (= cell_5_5 3)))
 (let (($x3226 (= cell_5_5 2)))
 (let (($x2179 (= cell_5_5 1)))
 (or $x2179 $x3226 $x3939 $x1903 $x2099 $x3210 $x3372 $x1836 $x3406)))))))))))
(assert
 (let (($x2817 (= cell_6_5 9)))
 (let (($x1370 (= cell_6_5 8)))
 (let (($x748 (= cell_6_5 7)))
 (let (($x1271 (= cell_6_5 6)))
 (let (($x3043 (= cell_6_5 5)))
 (let (($x2384 (= cell_6_5 4)))
 (let (($x1204 (= cell_6_5 3)))
 (let (($x3096 (= cell_6_5 2)))
 (let (($x344 (= cell_6_5 1)))
 (or $x344 $x3096 $x1204 $x2384 $x3043 $x1271 $x748 $x1370 $x2817)))))))))))
(assert
 (let (($x2550 (= cell_7_5 1)))
 (or $x2550 (= cell_7_5 2) (= cell_7_5 3) (= cell_7_5 4) (= cell_7_5 5) (= cell_7_5 6) (= cell_7_5 7) (= cell_7_5 8) (= cell_7_5 9))))
(assert
 (let (($x537 (= cell_8_5 9)))
 (let (($x1547 (= cell_8_5 8)))
 (let (($x220 (= cell_8_5 7)))
 (let (($x241 (= cell_8_5 6)))
 (let (($x2728 (= cell_8_5 5)))
 (let (($x843 (= cell_8_5 4)))
 (let (($x7683 (= cell_8_5 3)))
 (let (($x177 (= cell_8_5 2)))
 (let (($x1047 (= cell_8_5 1)))
 (or $x1047 $x177 $x7683 $x843 $x2728 $x241 $x220 $x1547 $x537)))))))))))
(assert
 (let (($x2518 (= cell_9_5 1)))
 (or $x2518 (= cell_9_5 2) (= cell_9_5 3) (= cell_9_5 4) (= cell_9_5 5) (= cell_9_5 6) (= cell_9_5 7) (= cell_9_5 8) (= cell_9_5 9))))
(assert
 (let (($x7357 (= cell_1_6 1)))
 (or $x7357 (= cell_1_6 2) (= cell_1_6 3) (= cell_1_6 4) (= cell_1_6 5) (= cell_1_6 6) (= cell_1_6 7) (= cell_1_6 8) (= cell_1_6 9))))
(assert
 (let (($x357 (= cell_2_6 9)))
 (let (($x3591 (= cell_2_6 8)))
 (let (($x296 (= cell_2_6 7)))
 (let (($x1893 (= cell_2_6 6)))
 (let (($x1833 (= cell_2_6 5)))
 (let (($x1110 (= cell_2_6 4)))
 (let (($x2478 (= cell_2_6 3)))
 (let (($x3688 (= cell_2_6 2)))
 (let (($x3391 (= cell_2_6 1)))
 (or $x3391 $x3688 $x2478 $x1110 $x1833 $x1893 $x296 $x3591 $x357)))))))))))
(assert
 (let (($x3766 (= cell_3_6 2)))
 (or (= cell_3_6 1) $x3766 (= cell_3_6 3) (= cell_3_6 4) (= cell_3_6 5) (= cell_3_6 6) (= cell_3_6 7) (= cell_3_6 8) (= cell_3_6 9))))
(assert
 (let (($x1310 (= cell_4_6 9)))
 (let (($x3728 (= cell_4_6 8)))
 (let (($x7196 (= cell_4_6 7)))
 (let (($x2205 (= cell_4_6 6)))
 (let (($x2510 (= cell_4_6 5)))
 (let (($x650 (= cell_4_6 4)))
 (let (($x1882 (= cell_4_6 3)))
 (let (($x2342 (= cell_4_6 2)))
 (let (($x7835 (= cell_4_6 1)))
 (or $x7835 $x2342 $x1882 $x650 $x2510 $x2205 $x7196 $x3728 $x1310)))))))))))
(assert
 (let (($x2628 (= cell_5_6 9)))
 (let (($x7332 (= cell_5_6 8)))
 (let (($x1092 (= cell_5_6 7)))
 (let (($x2343 (= cell_5_6 6)))
 (let (($x675 (= cell_5_6 5)))
 (let (($x356 (= cell_5_6 4)))
 (let (($x135 (= cell_5_6 3)))
 (let (($x3823 (= cell_5_6 2)))
 (let (($x2138 (= cell_5_6 1)))
 (or $x2138 $x3823 $x135 $x356 $x675 $x2343 $x1092 $x7332 $x2628)))))))))))
(assert
 (let (($x3390 (= cell_6_6 2)))
 (let (($x4076 (= cell_6_6 1)))
 (or $x4076 $x3390 (= cell_6_6 3) (= cell_6_6 4) (= cell_6_6 5) (= cell_6_6 6) (= cell_6_6 7) (= cell_6_6 8) (= cell_6_6 9)))))
(assert
 (let (($x584 (= cell_7_6 2)))
 (let (($x2102 (= cell_7_6 1)))
 (or $x2102 $x584 (= cell_7_6 3) (= cell_7_6 4) (= cell_7_6 5) (= cell_7_6 6) (= cell_7_6 7) (= cell_7_6 8) (= cell_7_6 9)))))
(assert
 (let (($x3594 (= cell_8_6 9)))
 (let (($x2406 (= cell_8_6 8)))
 (let (($x3237 (= cell_8_6 7)))
 (let (($x3733 (= cell_8_6 6)))
 (let (($x1587 (= cell_8_6 5)))
 (let (($x1326 (= cell_8_6 4)))
 (let (($x1319 (= cell_8_6 3)))
 (let (($x7840 (= cell_8_6 2)))
 (let (($x3555 (= cell_8_6 1)))
 (or $x3555 $x7840 $x1319 $x1326 $x1587 $x3733 $x3237 $x2406 $x3594)))))))))))
(assert
 (let (($x974 (= cell_9_6 2)))
 (let (($x7989 (= cell_9_6 1)))
 (or $x7989 $x974 (= cell_9_6 3) (= cell_9_6 4) (= cell_9_6 5) (= cell_9_6 6) (= cell_9_6 7) (= cell_9_6 8) (= cell_9_6 9)))))
(assert
 (let (($x2183 (= cell_1_7 2)))
 (or (= cell_1_7 1) $x2183 (= cell_1_7 3) (= cell_1_7 4) (= cell_1_7 5) (= cell_1_7 6) (= cell_1_7 7) (= cell_1_7 8) (= cell_1_7 9))))
(assert
 (let (($x6713 (= cell_2_7 1)))
 (or $x6713 (= cell_2_7 2) (= cell_2_7 3) (= cell_2_7 4) (= cell_2_7 5) (= cell_2_7 6) (= cell_2_7 7) (= cell_2_7 8) (= cell_2_7 9))))
(assert
 (let (($x3684 (= cell_3_7 2)))
 (let (($x2639 (= cell_3_7 1)))
 (or $x2639 $x3684 (= cell_3_7 3) (= cell_3_7 4) (= cell_3_7 5) (= cell_3_7 6) (= cell_3_7 7) (= cell_3_7 8) (= cell_3_7 9)))))
(assert
 (let (($x3848 (= cell_4_7 9)))
 (let (($x1231 (= cell_4_7 8)))
 (let (($x88 (= cell_4_7 7)))
 (let (($x3807 (= cell_4_7 6)))
 (let (($x1388 (= cell_4_7 5)))
 (let (($x2557 (= cell_4_7 4)))
 (let (($x6689 (= cell_4_7 3)))
 (let (($x3820 (= cell_4_7 2)))
 (let (($x2493 (= cell_4_7 1)))
 (or $x2493 $x3820 $x6689 $x2557 $x1388 $x3807 $x88 $x1231 $x3848)))))))))))
(assert
 (let (($x2254 (= cell_5_7 9)))
 (let (($x3318 (= cell_5_7 8)))
 (let (($x3462 (= cell_5_7 7)))
 (let (($x628 (= cell_5_7 6)))
 (let (($x3244 (= cell_5_7 5)))
 (let (($x7313 (= cell_5_7 4)))
 (let (($x2178 (= cell_5_7 3)))
 (let (($x1869 (= cell_5_7 2)))
 (let (($x3764 (= cell_5_7 1)))
 (or $x3764 $x1869 $x2178 $x7313 $x3244 $x628 $x3462 $x3318 $x2254)))))))))))
(assert
 (let (($x1244 (= cell_6_7 2)))
 (let (($x6860 (= cell_6_7 1)))
 (or $x6860 $x1244 (= cell_6_7 3) (= cell_6_7 4) (= cell_6_7 5) (= cell_6_7 6) (= cell_6_7 7) (= cell_6_7 8) (= cell_6_7 9)))))
(assert
 (let (($x111 (= cell_7_7 9)))
 (let (($x2328 (= cell_7_7 8)))
 (let (($x7629 (= cell_7_7 7)))
 (let (($x1044 (= cell_7_7 6)))
 (let (($x564 (= cell_7_7 5)))
 (let (($x7821 (= cell_7_7 4)))
 (let (($x1710 (= cell_7_7 3)))
 (let (($x1494 (= cell_7_7 2)))
 (let (($x3577 (= cell_7_7 1)))
 (or $x3577 $x1494 $x1710 $x7821 $x564 $x1044 $x7629 $x2328 $x111)))))))))))
(assert
 (let (($x2214 (= cell_8_7 9)))
 (let (($x7787 (= cell_8_7 8)))
 (let (($x2188 (= cell_8_7 7)))
 (let (($x886 (= cell_8_7 6)))
 (let (($x219 (= cell_8_7 5)))
 (let (($x8013 (= cell_8_7 4)))
 (let (($x3531 (= cell_8_7 3)))
 (let (($x646 (= cell_8_7 2)))
 (let (($x919 (= cell_8_7 1)))
 (or $x919 $x646 $x3531 $x8013 $x219 $x886 $x2188 $x7787 $x2214)))))))))))
(assert
 (let (($x2669 (= cell_9_7 2)))
 (let (($x686 (= cell_9_7 1)))
 (or $x686 $x2669 (= cell_9_7 3) (= cell_9_7 4) (= cell_9_7 5) (= cell_9_7 6) (= cell_9_7 7) (= cell_9_7 8) (= cell_9_7 9)))))
(assert
 (let (($x82 (= cell_1_8 9)))
 (let (($x1340 (= cell_1_8 8)))
 (let (($x1119 (= cell_1_8 7)))
 (let (($x74 (= cell_1_8 6)))
 (let (($x1973 (= cell_1_8 5)))
 (let (($x3161 (= cell_1_8 4)))
 (let (($x8026 (= cell_1_8 3)))
 (let (($x7795 (= cell_1_8 2)))
 (let (($x93 (= cell_1_8 1)))
 (or $x93 $x7795 $x8026 $x3161 $x1973 $x74 $x1119 $x1340 $x82)))))))))))
(assert
 (let (($x1003 (= cell_2_8 9)))
 (let (($x7527 (= cell_2_8 8)))
 (let (($x2418 (= cell_2_8 7)))
 (let (($x291 (= cell_2_8 6)))
 (let (($x848 (= cell_2_8 5)))
 (let (($x3645 (= cell_2_8 4)))
 (let (($x2545 (= cell_2_8 3)))
 (let (($x34 (= cell_2_8 2)))
 (let (($x231 (= cell_2_8 1)))
 (or $x231 $x34 $x2545 $x3645 $x848 $x291 $x2418 $x7527 $x1003)))))))))))
(assert
 (let (($x1438 (= cell_3_8 9)))
 (let (($x2441 (= cell_3_8 8)))
 (let (($x2197 (= cell_3_8 7)))
 (let (($x306 (= cell_3_8 6)))
 (let (($x6581 (= cell_3_8 5)))
 (let (($x2266 (= cell_3_8 4)))
 (let (($x2365 (= cell_3_8 3)))
 (let (($x1785 (= cell_3_8 2)))
 (let (($x3305 (= cell_3_8 1)))
 (or $x3305 $x1785 $x2365 $x2266 $x6581 $x306 $x2197 $x2441 $x1438)))))))))))
(assert
 (let (($x2362 (= cell_4_8 9)))
 (let (($x1334 (= cell_4_8 8)))
 (let (($x3410 (= cell_4_8 7)))
 (let (($x1681 (= cell_4_8 6)))
 (let (($x200 (= cell_4_8 5)))
 (let (($x1868 (= cell_4_8 4)))
 (let (($x1799 (= cell_4_8 3)))
 (let (($x3792 (= cell_4_8 2)))
 (let (($x496 (= cell_4_8 1)))
 (or $x496 $x3792 $x1799 $x1868 $x200 $x1681 $x3410 $x1334 $x2362)))))))))))
(assert
 (let (($x3959 (= cell_5_8 2)))
 (or (= cell_5_8 1) $x3959 (= cell_5_8 3) (= cell_5_8 4) (= cell_5_8 5) (= cell_5_8 6) (= cell_5_8 7) (= cell_5_8 8) (= cell_5_8 9))))
(assert
 (let (($x7506 (= cell_6_8 9)))
 (let (($x2364 (= cell_6_8 8)))
 (let (($x2704 (= cell_6_8 7)))
 (let (($x3528 (= cell_6_8 6)))
 (let (($x2558 (= cell_6_8 5)))
 (let (($x6890 (= cell_6_8 4)))
 (let (($x3622 (= cell_6_8 3)))
 (let (($x3128 (= cell_6_8 2)))
 (let (($x3835 (= cell_6_8 1)))
 (or $x3835 $x3128 $x3622 $x6890 $x2558 $x3528 $x2704 $x2364 $x7506)))))))))))
(assert
 (let (($x2936 (= cell_7_8 9)))
 (let (($x2378 (= cell_7_8 8)))
 (let (($x2198 (= cell_7_8 7)))
 (let (($x1492 (= cell_7_8 6)))
 (let (($x7847 (= cell_7_8 5)))
 (let (($x1496 (= cell_7_8 4)))
 (let (($x1812 (= cell_7_8 3)))
 (let (($x354 (= cell_7_8 2)))
 (let (($x750 (= cell_7_8 1)))
 (or $x750 $x354 $x1812 $x1496 $x7847 $x1492 $x2198 $x2378 $x2936)))))))))))
(assert
 (let (($x3468 (= cell_8_8 1)))
 (or $x3468 (= cell_8_8 2) (= cell_8_8 3) (= cell_8_8 4) (= cell_8_8 5) (= cell_8_8 6) (= cell_8_8 7) (= cell_8_8 8) (= cell_8_8 9))))
(assert
 (let (($x677 (= cell_9_8 2)))
 (let (($x2861 (= cell_9_8 1)))
 (or $x2861 $x677 (= cell_9_8 3) (= cell_9_8 4) (= cell_9_8 5) (= cell_9_8 6) (= cell_9_8 7) (= cell_9_8 8) (= cell_9_8 9)))))
(assert
 (let (($x2653 (= cell_1_9 9)))
 (let (($x929 (= cell_1_9 8)))
 (let (($x4124 (= cell_1_9 7)))
 (let (($x1145 (= cell_1_9 6)))
 (let (($x1203 (= cell_1_9 5)))
 (let (($x2172 (= cell_1_9 4)))
 (let (($x1327 (= cell_1_9 3)))
 (let (($x873 (= cell_1_9 2)))
 (let (($x1700 (= cell_1_9 1)))
 (or $x1700 $x873 $x1327 $x2172 $x1203 $x1145 $x4124 $x929 $x2653)))))))))))
(assert
 (let (($x790 (= cell_2_9 9)))
 (let (($x2526 (= cell_2_9 8)))
 (let (($x4001 (= cell_2_9 7)))
 (let (($x1021 (= cell_2_9 6)))
 (let (($x3715 (= cell_2_9 5)))
 (let (($x802 (= cell_2_9 4)))
 (let (($x42 (= cell_2_9 3)))
 (let (($x3814 (= cell_2_9 2)))
 (let (($x2468 (= cell_2_9 1)))
 (or $x2468 $x3814 $x42 $x802 $x3715 $x1021 $x4001 $x2526 $x790)))))))))))
(assert
 (let (($x7771 (= cell_3_9 9)))
 (let (($x820 (= cell_3_9 8)))
 (let (($x2559 (= cell_3_9 7)))
 (let (($x512 (= cell_3_9 6)))
 (let (($x2713 (= cell_3_9 5)))
 (let (($x1396 (= cell_3_9 4)))
 (let (($x2605 (= cell_3_9 3)))
 (let (($x2143 (= cell_3_9 2)))
 (let (($x2768 (= cell_3_9 1)))
 (or $x2768 $x2143 $x2605 $x1396 $x2713 $x512 $x2559 $x820 $x7771)))))))))))
(assert
 (let (($x1819 (= cell_4_9 1)))
 (or $x1819 (= cell_4_9 2) (= cell_4_9 3) (= cell_4_9 4) (= cell_4_9 5) (= cell_4_9 6) (= cell_4_9 7) (= cell_4_9 8) (= cell_4_9 9))))
(assert
 (let (($x4229 (= cell_5_9 2)))
 (let (($x1952 (= cell_5_9 1)))
 (or $x1952 $x4229 (= cell_5_9 3) (= cell_5_9 4) (= cell_5_9 5) (= cell_5_9 6) (= cell_5_9 7) (= cell_5_9 8) (= cell_5_9 9)))))
(assert
 (let (($x486 (= cell_6_9 2)))
 (let (($x3080 (= cell_6_9 1)))
 (or $x3080 $x486 (= cell_6_9 3) (= cell_6_9 4) (= cell_6_9 5) (= cell_6_9 6) (= cell_6_9 7) (= cell_6_9 8) (= cell_6_9 9)))))
(assert
 (let (($x783 (= cell_7_9 9)))
 (let (($x1514 (= cell_7_9 8)))
 (let (($x1694 (= cell_7_9 7)))
 (let (($x2712 (= cell_7_9 6)))
 (let (($x120 (= cell_7_9 5)))
 (let (($x3794 (= cell_7_9 4)))
 (let (($x3702 (= cell_7_9 3)))
 (let (($x1301 (= cell_7_9 2)))
 (let (($x591 (= cell_7_9 1)))
 (or $x591 $x1301 $x3702 $x3794 $x120 $x2712 $x1694 $x1514 $x783)))))))))))
(assert
 (let (($x1816 (= cell_8_9 2)))
 (let (($x2239 (= cell_8_9 1)))
 (or $x2239 $x1816 (= cell_8_9 3) (= cell_8_9 4) (= cell_8_9 5) (= cell_8_9 6) (= cell_8_9 7) (= cell_8_9 8) (= cell_8_9 9)))))
(assert
 (let (($x3179 (= cell_9_9 1)))
 (or $x3179 (= cell_9_9 2) (= cell_9_9 3) (= cell_9_9 4) (= cell_9_9 5) (= cell_9_9 6) (= cell_9_9 7) (= cell_9_9 8) (= cell_9_9 9))))
(assert
 (and (distinct cell_1_1 cell_1_2 cell_1_3 cell_1_4 cell_1_5 cell_1_6 cell_1_7 cell_1_8 cell_1_9) true))
(assert
 (and (distinct cell_2_1 cell_2_2 cell_2_3 cell_2_4 cell_2_5 cell_2_6 cell_2_7 cell_2_8 cell_2_9) true))
(assert
 (and (distinct cell_3_1 cell_3_2 cell_3_3 cell_3_4 cell_3_5 cell_3_6 cell_3_7 cell_3_8 cell_3_9) true))
(assert
 (and (distinct cell_4_1 cell_4_2 cell_4_3 cell_4_4 cell_4_5 cell_4_6 cell_4_7 cell_4_8 cell_4_9) true))
(assert
 (and (distinct cell_5_1 cell_5_2 cell_5_3 cell_5_4 cell_5_5 cell_5_6 cell_5_7 cell_5_8 cell_5_9) true))
(assert
 (and (distinct cell_6_1 cell_6_2 cell_6_3 cell_6_4 cell_6_5 cell_6_6 cell_6_7 cell_6_8 cell_6_9) true))
(assert
 (and (distinct cell_7_1 cell_7_2 cell_7_3 cell_7_4 cell_7_5 cell_7_6 cell_7_7 cell_7_8 cell_7_9) true))
(assert
 (and (distinct cell_8_1 cell_8_2 cell_8_3 cell_8_4 cell_8_5 cell_8_6 cell_8_7 cell_8_8 cell_8_9) true))
(assert
 (and (distinct cell_9_1 cell_9_2 cell_9_3 cell_9_4 cell_9_5 cell_9_6 cell_9_7 cell_9_8 cell_9_9) true))
(assert
 (and (distinct cell_1_1 cell_2_1 cell_3_1 cell_4_1 cell_5_1 cell_6_1 cell_7_1 cell_8_1 cell_9_1) true))
(assert
 (and (distinct cell_1_2 cell_2_2 cell_3_2 cell_4_2 cell_5_2 cell_6_2 cell_7_2 cell_8_2 cell_9_2) true))
(assert
 (and (distinct cell_1_3 cell_2_3 cell_3_3 cell_4_3 cell_5_3 cell_6_3 cell_7_3 cell_8_3 cell_9_3) true))
(assert
 (and (distinct cell_1_4 cell_2_4 cell_3_4 cell_4_4 cell_5_4 cell_6_4 cell_7_4 cell_8_4 cell_9_4) true))
(assert
 (and (distinct cell_1_5 cell_2_5 cell_3_5 cell_4_5 cell_5_5 cell_6_5 cell_7_5 cell_8_5 cell_9_5) true))
(assert
 (and (distinct cell_1_6 cell_2_6 cell_3_6 cell_4_6 cell_5_6 cell_6_6 cell_7_6 cell_8_6 cell_9_6) true))
(assert
 (and (distinct cell_1_7 cell_2_7 cell_3_7 cell_4_7 cell_5_7 cell_6_7 cell_7_7 cell_8_7 cell_9_7) true))
(assert
 (and (distinct cell_1_8 cell_2_8 cell_3_8 cell_4_8 cell_5_8 cell_6_8 cell_7_8 cell_8_8 cell_9_8) true))
(assert
 (and (distinct cell_1_9 cell_2_9 cell_3_9 cell_4_9 cell_5_9 cell_6_9 cell_7_9 cell_8_9 cell_9_9) true))
(assert
 (and (distinct cell_1_1 cell_1_2 cell_1_3 cell_2_1 cell_2_2 cell_2_3 cell_3_1 cell_3_2 cell_3_3) true))
(assert
 (and (distinct cell_1_4 cell_1_5 cell_1_6 cell_2_4 cell_2_5 cell_2_6 cell_3_4 cell_3_5 cell_3_6) true))
(assert
 (and (distinct cell_1_7 cell_1_8 cell_1_9 cell_2_7 cell_2_8 cell_2_9 cell_3_7 cell_3_8 cell_3_9) true))
(assert
 (and (distinct cell_4_1 cell_4_2 cell_4_3 cell_5_1 cell_5_2 cell_5_3 cell_6_1 cell_6_2 cell_6_3) true))
(assert
 (and (distinct cell_4_4 cell_4_5 cell_4_6 cell_5_4 cell_5_5 cell_5_6 cell_6_4 cell_6_5 cell_6_6) true))
(assert
 (and (distinct cell_4_7 cell_4_8 cell_4_9 cell_5_7 cell_5_8 cell_5_9 cell_6_7 cell_6_8 cell_6_9) true))
(assert
 (and (distinct cell_7_1 cell_7_2 cell_7_3 cell_8_1 cell_8_2 cell_8_3 cell_9_1 cell_9_2 cell_9_3) true))
(assert
 (and (distinct cell_7_4 cell_7_5 cell_7_6 cell_8_4 cell_8_5 cell_8_6 cell_9_4 cell_9_5 cell_9_6) true))
(assert
 (and (distinct cell_7_7 cell_7_8 cell_7_9 cell_8_7 cell_8_8 cell_8_9 cell_9_7 cell_9_8 cell_9_9) true))
(assert
 (let (($x2209 (and (distinct cell_5_9 cell_6_8 cell_7_7 cell_8_6) true)))
 (let (($x3833 (and (distinct cell_2_9 cell_3_8 cell_4_7 cell_5_6 cell_6_5 cell_7_4 cell_8_3 cell_9_2) true)))
 (let (($x1053 (and (distinct cell_1_8 cell_2_7 cell_3_6 cell_4_5 cell_5_4 cell_6_3 cell_7_2 cell_8_1) true)))
 (let (($x762 (and (distinct cell_1_5 cell_2_4 cell_3_3 cell_4_2) true)))
 (let (($x3251 (and (distinct cell_5_1 cell_6_2 cell_7_3 cell_8_4) true)))
 (let (($x2308 (and (distinct cell_2_1 cell_3_2 cell_4_3 cell_5_4 cell_6_5 cell_7_6 cell_8_7 cell_9_8) true)))
 (let (($x1127 (and (distinct cell_1_2 cell_2_3 cell_3_4 cell_4_5 cell_5_6 cell_6_7 cell_7_8 cell_8_9) true)))
 (let (($x1692 (and (distinct cell_1_5 cell_2_6 cell_3_7 cell_4_8) true)))
 (and $x1692 $x1127 $x2308 $x3251 $x762 $x1053 $x3833 $x2209))))))))))
(assert
 (= cell_6_1 2))
(check-sat)
